Route #1: 9 54 58 2 63 47 46 8 16 60 41
Route #2: 10 56 52 13 61 24 32 42
Route #3: 15 11 57 12 22 18
Route #4: 25 29 6
Route #5: 38 43 28 14 27 1 17
Route #6: 34 55 49 44 39 36 40 7 21 26 35 30 45
Route #7: 33 62 48
Route #8: 53 3 51 19 20
Route #9: 4 5 50 31 59 37 23
Cost 1401
Time 0.698394
Tempo = 0.7114876999985427